
;this file is automatically generated: Fri Jan 03 16:26:56 GMT 2020

;declarations generated

(declare-fun oclExcludes ( Int Int) Bool)
(declare-fun type_b0e802ec_dd06_4c4e_acda_db6bb4f7fcd9_Class12 ( Int) Bool)
(declare-fun class12_Class12BoolAttr2 ( Int) Bool)
(declare-fun class12_Class12BoolAttr1 ( Int) Bool)
(declare-fun class12_Class12BoolAttr0 ( Int) Bool)
(declare-fun Cardinality ( Int) Int)
(declare-fun class12_Class12IntAttr4 ( Int) Int)
(declare-fun class12_Class12IntAttr3 ( Int) Int)
(declare-fun oclSelect ( Int Bool) Int)
(declare-fun Enum0 ( Int) Int)
(declare-fun Enum1 ( Int) Int)
(declare-fun Enum2 ( Int) Int)
(declare-fun container_ ( Int) Int)
(declare-fun oclIncludes ( Int Int) Bool)
(declare-fun obj_395b933b_4539_4531_a7e0_143889a28151 ( Int) Int)
(declare-fun ObjAt ( Int Int) Int)

;formula(s) generated
(assert (forall ((p Int)) (=> ( type_b0e802ec_dd06_4c4e_acda_db6bb4f7fcd9_Class12 p )  (and (>= ( Enum0 ( obj_395b933b_4539_4531_a7e0_143889a28151 p )  )  0) (<= ( Enum0 ( obj_395b933b_4539_4531_a7e0_143889a28151 p )  )  4)))))
(assert (! (forall ((v Int)) (=> ( type_b0e802ec_dd06_4c4e_acda_db6bb4f7fcd9_Class12 v )  (= ( class12_Class12IntAttr4 ( obj_395b933b_4539_4531_a7e0_143889a28151 v )  )  3))):named l0))
(assert (! (forall ((c2_1 Int)(c2_2 Int)) (=> (and ( type_b0e802ec_dd06_4c4e_acda_db6bb4f7fcd9_Class12 c2_1 )  ( type_b0e802ec_dd06_4c4e_acda_db6bb4f7fcd9_Class12 c2_2 ) ) (< ( class12_Class12IntAttr3 ( obj_395b933b_4539_4531_a7e0_143889a28151 c2_1 )  )  ( class12_Class12IntAttr4 ( obj_395b933b_4539_4531_a7e0_143889a28151 c2_2 )  ) ))):named l1))
(assert (! (forall ((c2_1 Int)(c2_2 Int)) (=> (and ( type_b0e802ec_dd06_4c4e_acda_db6bb4f7fcd9_Class12 c2_1 )  ( type_b0e802ec_dd06_4c4e_acda_db6bb4f7fcd9_Class12 c2_2 ) ) (< ( class12_Class12IntAttr4 ( obj_395b933b_4539_4531_a7e0_143889a28151 c2_1 )  )  ( class12_Class12IntAttr3 ( obj_395b933b_4539_4531_a7e0_143889a28151 c2_2 )  ) ))):named l2))
(assert (! (forall ((c2_1 Int)(c2_2 Int)) (=> (and ( type_b0e802ec_dd06_4c4e_acda_db6bb4f7fcd9_Class12 c2_1 )  ( type_b0e802ec_dd06_4c4e_acda_db6bb4f7fcd9_Class12 c2_2 ) ) (> ( class12_Class12IntAttr4 ( obj_395b933b_4539_4531_a7e0_143889a28151 c2_1 )  )  ( class12_Class12IntAttr3 ( obj_395b933b_4539_4531_a7e0_143889a28151 c2_2 )  ) ))):named l3))
(assert (! (forall ((v Int)) (=> ( type_b0e802ec_dd06_4c4e_acda_db6bb4f7fcd9_Class12 v )  (> ( class12_Class12IntAttr3 ( obj_395b933b_4539_4531_a7e0_143889a28151 v )  )  18))):named l4))
(assert (! (or (forall ((v Int)) (=> ( type_b0e802ec_dd06_4c4e_acda_db6bb4f7fcd9_Class12 v )  (or ( class12_Class12BoolAttr0 ( obj_395b933b_4539_4531_a7e0_143889a28151 v )  )  (or (forall ((v Int)) (=> ( type_b0e802ec_dd06_4c4e_acda_db6bb4f7fcd9_Class12 v )  (not (= ( Enum0 ( obj_395b933b_4539_4531_a7e0_143889a28151 v )  )  2) ))) (forall ((v Int)) (=> ( type_b0e802ec_dd06_4c4e_acda_db6bb4f7fcd9_Class12 v )  ( class12_Class12BoolAttr1 ( obj_395b933b_4539_4531_a7e0_143889a28151 v )  ) )))))) (forall ((v Int)) (=> ( type_b0e802ec_dd06_4c4e_acda_db6bb4f7fcd9_Class12 v )  (< ( class12_Class12IntAttr4 ( obj_395b933b_4539_4531_a7e0_143889a28151 v )  )  18)))):named l5))
(assert (! (or (or (forall ((v Int)) (=> ( type_b0e802ec_dd06_4c4e_acda_db6bb4f7fcd9_Class12 v )  ( class12_Class12BoolAttr1 ( obj_395b933b_4539_4531_a7e0_143889a28151 v )  ) )) (forall ((v Int)) (=> ( type_b0e802ec_dd06_4c4e_acda_db6bb4f7fcd9_Class12 v )  ( class12_Class12BoolAttr0 ( obj_395b933b_4539_4531_a7e0_143889a28151 v )  ) ))) (or (forall ((v Int)) (=> ( type_b0e802ec_dd06_4c4e_acda_db6bb4f7fcd9_Class12 v )  ( class12_Class12BoolAttr2 ( obj_395b933b_4539_4531_a7e0_143889a28151 v )  ) )) (forall ((v Int)) (=> ( type_b0e802ec_dd06_4c4e_acda_db6bb4f7fcd9_Class12 v )  (<= ( class12_Class12IntAttr3 ( obj_395b933b_4539_4531_a7e0_143889a28151 v )  )  7))))):named l6))
(assert (exists ((o Int)) ( type_b0e802ec_dd06_4c4e_acda_db6bb4f7fcd9_Class12 ( obj_395b933b_4539_4531_a7e0_143889a28151 o )  ) ))

 ;end of formula 